12 40 9 10
7 1 18 17 8 13 17 12 10 7 5 19 15 16 6 10 8 17 16 15 9 3 6 4 10 10 8 9 19 7 7 2 17 19 8 17 19 19 8 9 
0.82 6.54 4.46 0.35 3.64 2.26 5.18 3.59 3.85 1.94 2.01 7.25 5.05 4.58 7.42 3.4 1.95 0.46 3.61 4.28 7.02 6.05 3.36 3.11 3.87 3.74 4.61 0.19 0.76 3.44 1.84 4.4 4.4 5.96 6.61 0.33 1.83 4.64 1.54 7.2 
5.71 0.83 4.02 0.45 4.45 4.98 4.99 5.67 5.37 3.76 7.42 5.84 0.45 6.2 6.7 3.36 5.41 4.5 1.43 4.44 3.54 6.17 7.7 5.69 0.01 3.99 6.37 5.48 5.6 4.12 6.6 7.71 5.02 2.24 3.43 2.6 5.28 3.73 0.17 3.9 
5.74 2.91 3.18 7.03 7.64 7.13 2.77 3.57 2.05 7.26 6.24 3.39 3.02 7.55 3.73 5.56 1.94 1.97 3.53 6.77 0.77 6.78 3.45 1.69 4.98 7.64 6.26 0.27 0.59 1.68 5.2 0.23 6.11 7.18 2.8 4.18 0.71 0.06 0.98 3.17 
6.59 3.88 7.77 5.57 7.23 3.74 1.87 3.19 6.15 2.92 0.46 4.63 6.38 4.04 7.08 7.61 3.97 0.21 3.65 3.97 2.03 5.3 0.13 2.49 2.37 6.14 7.31 2.38 2.58 2.15 1.5 5.46 0.07 6.71 4.11 1 7.75 4.06 7.45 4.18 
0.12 6.37 6.02 6.11 2.5 4.57 5.29 0.03 3.87 4.85 5.87 3.96 0.78 7.83 3.48 3.69 6.24 4.07 6.3 5.01 1.18 7.25 2.2 3.23 7.99 6.1 5.75 4.54 2.92 4.4 0.11 7.53 2.47 0.94 7.17 2.08 3.85 6.68 1.51 1.87 
5.73 0.66 0.51 1.11 7.23 7.67 7.17 6.64 7.88 5.37 6.93 2.96 1.15 5.41 0.72 6.87 7.9 4.24 4 6.89 5.83 5.43 0.61 5.1 1.72 1.11 3.68 6.22 0.33 0.1 5.26 4.92 3.71 4.78 3.71 6.99 4.71 2.32 3.87 7.22 
3.91 3.24 5.37 0.28 0.96 4.11 6.83 1.47 0.6 3.62 2.73 5.44 2.13 5.72 4.51 4.79 2.45 1.07 0.01 5.95 6.86 5.66 2.63 5.01 2.9 6.38 7.4 2.79 4.87 3.78 4.37 5.17 7.54 5.29 2.44 6 7 0.06 7.72 5.67 
0.16 5.3 3.94 0.71 7.44 5.3 5.86 1.62 7.66 2.55 3.32 7.4 5.49 6.03 3.44 7.82 0.78 5.8 7.39 4.58 5.56 4.91 7.36 5.77 7.98 6.27 1.03 6.86 0.61 5.23 4.95 3.84 6.7 5.12 5.53 6.07 2.24 4.38 2.71 0.98 
4.8 5.84 5.75 7.48 3.63 0.93 0.47 4.51 5.53 7.31 3.06 0.75 4.23 2.81 6.82 4.53 1.61 6.39 6.9 5.13 2.28 0.98 4.61 3.76 5.05 5.55 4.44 1.4 3.15 7.46 0.92 6.07 0.34 2.99 0.98 6.72 3.39 0.99 2.54 3.55 
4 4 4 4 4 4 4 4 4 4 4 4 4 4 4 4 4 4 4 4 4 4 4 4 4 4 4 4 4 4 4 4 4 4 4 4 4 4 4 4 
1.58 2.08 1.72 6.68 4.89 4.98 2.52 4.97 7.25 0.28 7.1 2.37 0.96 2.74 2.71 7.71 6.25 5.12 7.56 0.97 6.34 4.42 6.96 4.34 2.56 0.8 0.61 3.42 2.2 6.81 4.05 6.67 7.55 1.83 5.96 0.77 2.01 3.01 4.98 1.23 
5.22 2.29 6.32 2.04 2.48 3.62 0.26 0.1 6.64 5.75 4.93 5.34 4.33 2.09 3.65 3.96 2.12 6.2 0.95 4.51 0.86 0.4 0.18 1.03 1.54 6 6.4 1.21 7.49 4.46 3.07 5.61 0.82 6.53 3.01 7.16 3.66 4.99 4.28 0.75 
1 1 1 1 1 1 1 1 1 1 1 1 1 1 1 1 1 1 1 1 1 1 1 1 1 1 1 1 1 1 1 1 1 1 1 1 1 1 1 1 
1 1 1 1 1 1 1 1 1 1 1 1 1 1 1 1 1 1 1 1 1 1 1 1 1 1 1 1 1 1 1 1 1 1 1 1 1 1 1 1 
1 1 1 1 1 1 1 1 1 1 1 1 1 1 1 1 1 1 1 1 1 1 1 1 1 1 1 1 1 1 1 1 1 1 1 1 1 1 1 1 
1 1 1 1 1 1 1 1 1 1 1 1 1 1 1 1 1 1 1 1 1 1 1 1 1 1 1 1 1 1 1 1 1 1 1 1 1 1 1 1 
1 1 1 1 1 1 1 1 1 1 1 1 1 1 1 1 1 1 1 1 1 1 1 1 1 1 1 1 1 1 1 1 1 1 1 1 1 1 1 1 
1 1 1 1 1 1 1 1 1 1 1 1 1 1 1 1 1 1 1 1 1 1 1 1 1 1 1 1 1 1 1 1 1 1 1 1 1 1 1 1 
1 1 1 1 1 1 1 1 1 1 1 1 1 1 1 1 1 1 1 1 1 1 1 1 1 1 1 1 1 1 1 1 1 1 1 1 1 1 1 1 
1 1 1 1 1 1 1 1 1 1 1 1 1 1 1 1 1 1 1 1 1 1 1 1 1 1 1 1 1 1 1 1 1 1 1 1 1 1 1 1 
1 1 1 1 1 1 1 1 1 1 1 1 1 1 1 1 1 1 1 1 1 1 1 1 1 1 1 1 1 1 1 1 1 1 1 1 1 1 1 1 
1 1 1 1 1 1 1 1 1 1 1 1 1 1 1 1 1 1 1 1 1 1 1 1 1 1 1 1 1 1 1 1 1 1 1 1 1 1 1 1 
1 1 1 1 1 1 1 1 1 1 1 1 1 1 1 1 1 1 1 1 1 1 1 1 1 1 1 1 1 1 1 1 1 1 1 1 1 1 1 1 
1 1 1 1 1 1 1 1 1 1 1 1 1 1 1 1 1 1 1 1 1 1 1 1 1 1 1 1 1 1 1 1 1 1 1 1 1 1 1 1 
0.01 0.01 0.01 0.01 0.01 0.01 0.01 0.01 0.01 0.01 0.01 0.01 0.01 0.01 0.01 0.01 0.01 0.01 0.01 0.01 0.01 0.01 0.01 0.01 0.01 0.01 0.01 0.01 0.01 0.01 0.01 0.01 0.01 0.01 0.01 0.01 0.01 0.01 0.01 0.01 
0.02 0.02 0.02 0.02 0.02 0.02 0.02 0.02 0.02 0.02 0.02 0.02 0.02 0.02 0.02 0.02 0.02 0.02 0.02 0.02 0.02 0.02 0.02 0.02 0.02 0.02 0.02 0.02 0.02 0.02 0.02 0.02 0.02 0.02 0.02 0.02 0.02 0.02 0.02 0.02 
0.03 0.03 0.03 0.03 0.03 0.03 0.03 0.03 0.03 0.03 0.03 0.03 0.03 0.03 0.03 0.03 0.03 0.03 0.03 0.03 0.03 0.03 0.03 0.03 0.03 0.03 0.03 0.03 0.03 0.03 0.03 0.03 0.03 0.03 0.03 0.03 0.03 0.03 0.03 0.03 
0.04 0.04 0.04 0.04 0.04 0.04 0.04 0.04 0.04 0.04 0.04 0.04 0.04 0.04 0.04 0.04 0.04 0.04 0.04 0.04 0.04 0.04 0.04 0.04 0.04 0.04 0.04 0.04 0.04 0.04 0.04 0.04 0.04 0.04 0.04 0.04 0.04 0.04 0.04 0.04 
0.05 0.05 0.05 0.05 0.05 0.05 0.05 0.05 0.05 0.05 0.05 0.05 0.05 0.05 0.05 0.05 0.05 0.05 0.05 0.05 0.05 0.05 0.05 0.05 0.05 0.05 0.05 0.05 0.05 0.05 0.05 0.05 0.05 0.05 0.05 0.05 0.05 0.05 0.05 0.05 
0.06 0.06 0.06 0.06 0.06 0.06 0.06 0.06 0.06 0.06 0.06 0.06 0.06 0.06 0.06 0.06 0.06 0.06 0.06 0.06 0.06 0.06 0.06 0.06 0.06 0.06 0.06 0.06 0.06 0.06 0.06 0.06 0.06 0.06 0.06 0.06 0.06 0.06 0.06 0.06 
0.07 0.07 0.07 0.07 0.07 0.07 0.07 0.07 0.07 0.07 0.07 0.07 0.07 0.07 0.07 0.07 0.07 0.07 0.07 0.07 0.07 0.07 0.07 0.07 0.07 0.07 0.07 0.07 0.07 0.07 0.07 0.07 0.07 0.07 0.07 0.07 0.07 0.07 0.07 0.07 
0.08 0.08 0.08 0.08 0.08 0.08 0.08 0.08 0.08 0.08 0.08 0.08 0.08 0.08 0.08 0.08 0.08 0.08 0.08 0.08 0.08 0.08 0.08 0.08 0.08 0.08 0.08 0.08 0.08 0.08 0.08 0.08 0.08 0.08 0.08 0.08 0.08 0.08 0.08 0.08 
0.09 0.09 0.09 0.09 0.09 0.09 0.09 0.09 0.09 0.09 0.09 0.09 0.09 0.09 0.09 0.09 0.09 0.09 0.09 0.09 0.09 0.09 0.09 0.09 0.09 0.09 0.09 0.09 0.09 0.09 0.09 0.09 0.09 0.09 0.09 0.09 0.09 0.09 0.09 0.09 
0.1 0.1 0.1 0.1 0.1 0.1 0.1 0.1 0.1 0.1 0.1 0.1 0.1 0.1 0.1 0.1 0.1 0.1 0.1 0.1 0.1 0.1 0.1 0.1 0.1 0.1 0.1 0.1 0.1 0.1 0.1 0.1 0.1 0.1 0.1 0.1 0.1 0.1 0.1 0.1 
0.5 0.5 0.5 0.5 0.5 0.5 0.5 0.5 0.5 0.5 0.5 0.5 0.5 0.5 0.5 0.5 0.5 0.5 0.5 0.5 0.5 0.5 0.5 0.5 0.5 0.5 0.5 0.5 0.5 0.5 0.5 0.5 0.5 0.5 0.5 0.5 0.5 0.5 0.5 0.5 
1 1 1 1 1 1 1 1 1 1 1 1 1 1 1 1 1 1 1 1 1 1 1 1 1 1 1 1 1 1 1 1 1 1 1 1 1 1 1 1 
